(set-option :produce-proofs true)
(set-logic AUFNIRA)
(declare-fun a () Int)
(declare-fun b () Int)
(declare-fun c () Int)
(declare-fun d () Int)
(assert (and (= (* a b) (* c d)) (distinct a c) (distinct b d)))
(check-sat)
(exit)
